proyfinal/src/viki/013/experimentInOfficeAgust.take6.output/12de600d-2b8b-4e0e-9860-65161af28276.als.out
Reading from standard input... Use '--help' for help.
============================[ Problem Statistics ]=============================
|                                                                             |
|  Number of variables:         87638                                         |
|  Number of clauses:          161767                                         |
|  Parse time:                   0.03 s                                       |
|                                                                             |
============================[ Search Statistics ]==============================
| Conflicts |          ORIGINAL         |          LEARNT          | Progress |
|           |    Vars  Clauses Literals |    Limit  Clauses Lit/Cl |          |
===============================================================================
|       100 |   62369   105145   262695 |    38553      100     11 | 28.833 % |
|       250 |   62343   105043   262455 |    42408      248     34 | 28.863 % |
|       475 |   62339   104983   262321 |    46649      452     37 | 28.868 % |
|       812 |   62336   104959   262261 |    51314      788     52 | 28.871 % |
|      1318 |   62332   104943   262217 |    56445     1265     70 | 28.876 % |
|      2077 |   62288   104867   262036 |    62090     2022     83 | 28.926 % |
|      3216 |   62272   104699   261643 |    68299     3159     91 | 28.944 % |
|      4924 |   62171   104651   261511 |    75129     4810     92 | 29.059 % |
|      7486 |   62049   104108   260243 |    82642     6976     98 | 29.199 % |
===============================================================================
restarts              : 46
conflicts             : 11140          (7034 /sec)
decisions             : 37350          (0.00 % random) (23582 /sec)
propagations          : 15008649       (9476198 /sec)
conflict literals     : 985546         (49.77 % deleted)
Memory used           : 30.32 MB
CPU time              : 1.58383 s

UNSATISFIABLE
